
Gurobi 6.0.5 (linux64) logging started Sun Oct 22 22:04:16 2017


Gurobi 6.0.5 (linux64) logging started Sun Oct 22 22:04:30 2017


Gurobi 6.0.5 (linux64) logging started Sun Oct 22 22:04:45 2017


Gurobi 6.0.5 (linux64) logging started Sun Oct 22 22:05:02 2017


Gurobi 6.0.5 (linux64) logging started Sun Oct 22 22:05:23 2017


Gurobi 6.0.5 (linux64) logging started Sun Oct 22 22:05:45 2017


Gurobi 6.0.5 (linux64) logging started Sun Oct 22 22:05:47 2017


Gurobi 6.0.5 (linux64) logging started Sun Oct 22 22:06:00 2017


Gurobi 6.0.5 (linux64) logging started Sun Oct 22 22:06:16 2017


Gurobi 6.0.5 (linux64) logging started Sun Oct 22 22:06:19 2017


Gurobi 6.0.5 (linux64) logging started Sun Oct 22 22:06:34 2017


Gurobi 6.0.5 (linux64) logging started Sun Oct 22 22:06:55 2017


Gurobi 6.0.5 (linux64) logging started Sun Oct 22 22:06:56 2017


Gurobi 6.0.5 (linux64) logging started Sun Oct 22 22:07:22 2017


Gurobi 6.0.5 (linux64) logging started Sun Oct 22 22:07:38 2017


Gurobi 6.0.5 (linux64) logging started Sun Oct 22 22:07:53 2017


Gurobi 6.0.5 (linux64) logging started Sun Oct 22 22:08:31 2017


Gurobi 6.0.5 (linux64) logging started Sun Oct 22 22:09:13 2017


Gurobi 6.0.5 (linux64) logging started Mon Oct 23 10:01:21 2017


Gurobi 6.0.5 (linux64) logging started Mon Oct 23 10:01:47 2017


Gurobi 6.0.5 (linux64) logging started Mon Oct 23 10:04:22 2017


Gurobi 6.0.5 (linux64) logging started Mon Oct 23 10:04:45 2017


Gurobi 6.0.5 (linux64) logging started Mon Oct 23 10:07:23 2017


Gurobi 6.0.5 (linux64) logging started Mon Oct 23 10:07:43 2017

